wr=250;
nProviders=38;

cost_worker=[ 198 81 133 87 149 101 141 142 192 137 81 146 124 139 188 134 150 91 180 86 123 119 138 192 116 187 143 177 166 81 162 88 100 122 188 143 92 198 ];
available_workers=[ 26 27 23 15 29 28 19 17 29 25 20 25 21 21 19 25 18 19 29 30 29 20 15 23 28 30 15 25 29 19 25 30 16 26 15 26 20 16 ];
cost_contract=[ 1301 3138 1826 2494 1699 2767 2808 2872 2357 3367 2041 3111 2991 1614 2112 1463 2506 2969 2042 3223 3310 1881 2321 3235 1889 2452 2163 1430 2956 1687 2994 1062 1869 2243 1689 2873 3469 2347 ];
country=[ 8 14 20 8 19 4 1 11 15 1 2 17 9 19 15 15 20 10 13 20 5 19 15 11 12 8 17 1 8 11 16 13 4 17 16 19 10 10 ];
cost_1=5;
cost_2=7;
cost_3=150;